num_posiciones_existentes=4;

ciudades=[|2, 3
|4, 5
|6, 6
|7, 8|];

tamano_matriz=10;

matriz_segmento_poblacion=[|15, 3, 8, 12, 6, 14, 7, 10, 5, 9
                            |10, 5, 14, 6, 9, 15, 3, 8, 12, 7
                            |6, 7, 9, 10, 3, 15, 12, 14, 8, 5
                            |9, 8, 12, 15, 5, 7, 14, 6, 3, 10
                            |12, 14, 6, 3, 15, 8, 10, 9, 7, 5
                            |7, 9, 10, 5, 14, 6, 12, 3, 8, 15
                            |8, 12, 15, 9, 3, 7, 5, 14, 6, 10
                            |3, 6, 7, 14, 8, 9, 10, 15, 12, 5
                            |5, 10, 9, 7, 12, 3, 8, 6, 15, 14
                            |14, 8, 5, 10, 6, 12, 3, 15, 9, 7|];
                        

matriz_entorno_empresarial=[|13, 7, 11, 9, 6, 3, 8, 12, 5, 14
                            |6, 9, 3, 8, 14, 5, 12, 7, 11, 10
                            |8, 14, 5, 7, 13, 10, 9, 11, 3, 6
                            |10, 3, 6, 14, 9, 8, 12, 11, 5, 7
                            |7, 12, 8, 5, 14, 11, 3, 9, 6, 10
                            |5, 11, 9, 12, 10, 7, 6, 3, 8, 14
                            |14, 8, 6, 3, 12, 9, 10, 7, 5, 13
                            |11, 6, 7, 9, 8, 14, 3, 5, 10, 12
                            |9, 5, 12, 10, 11, 3, 7, 6, 14, 8
                            |12, 10, 14, 11, 8, 6, 5, 9, 7, 3|];
                        


num_programas=5;